(declare-rel loop ((Array Int Int) (Array Int Int) (Array Int Int) (Array Int Int) Int Int ))
(declare-rel exit ())
(declare-var i Int )
(declare-var i1 Int )
(declare-var index_limit Int )
(declare-var a_i Int )
(declare-var a_i_plus_1 Int )
(declare-var b_i Int )
(declare-var c_i Int )
(declare-var e_i Int )
(declare-var count Int )
(declare-var a_array (Array Int Int) )
(declare-var a_array_new (Array Int Int) )
(declare-var a_array_new1 (Array Int Int) )
(declare-var b_array (Array Int Int) )
(declare-var c_array (Array Int Int) )
(declare-var e_array (Array Int Int) )

(rule (=> 
	(and 
		(= index_limit (- (* count 8) 1))
		(= i 0)
	)
	(loop a_array b_array c_array e_array i index_limit)
))
(rule (=> 
	(and 
		(loop a_array b_array c_array e_array i index_limit)
		(< i index_limit)
		(= b_i (select b_array i))
		(= c_i (select c_array i))
		(= e_i (select e_array i))
		(= a_i_plus_1 (+ b_i e_i))
		(= a_i (+ b_i c_i))
		(= a_array_new (store a_array (+ i 1) a_i_plus_1))
		(= a_array_new1 (store a_array_new i a_i))
		(= i1 (+ i 1))
	)
	(loop a_array_new1 b_array c_array e_array i1 index_limit)
))
(rule (=> 
	(and 
		(loop a_array b_array c_array e_array i index_limit)
		(not (< i index_limit))
	)
	exit
))
(query exit)